sifdecoder -A pc64.lnx.gfo -st   A0NNDNIL

 Problem name: A0NNDNIL

 Double precision version will be formed

 The objective function uses 2 linear groups
 
 There are 20004 linear equality constraints
 
 There are 15004 free variables
 There are 10000 variables bounded only from below 
 There are 35008 fixed variables
 
 
 File successfully decoded
 CUTEST: tools (double precision version) compiled successfully
 CUTEst: ipopt (double precision version) compiled successfully

******************************************************************************
This program contains Ipopt, a library for large-scale nonlinear optimization.
 Ipopt is released as open source code under the Eclipse Public License (EPL).
         For more information visit http://projects.coin-or.org/Ipopt
******************************************************************************

This is Ipopt version trunk, running with linear solver ma57.

Number of nonzeros in equality constraint Jacobian...:    79995
Number of nonzeros in inequality constraint Jacobian.:        0
Number of nonzeros in Lagrangian Hessian.............:    30004

Total number of variables............................:    25004
                     variables with only lower bounds:    10000
                variables with lower and upper bounds:        0
                     variables with only upper bounds:        0
Total number of equality constraints.................:    20004
Total number of inequality constraints...............:        0
        inequality constraints with only lower bounds:        0
   inequality constraints with lower and upper bounds:        0
        inequality constraints with only upper bounds:        0

iter    objective    inf_pr   inf_du lg(mu)  ||d||  lg(rg) alpha_du alpha_pr  ls
   0  4.9999900e-01 9.92e+01 6.22e-01  -1.0 0.00e+00    -  0.00e+00 0.00e+00   0
   1  7.7592963e-01 9.90e+01 1.06e+00  -1.0 1.18e+02    -  1.02e-03 1.99e-03f  1
   2  1.1412383e+00 9.89e+01 1.05e+00  -1.0 1.29e+02    -  1.71e-03 1.69e-03f  1
   3  1.6633944e+00 9.87e+01 1.05e+00  -1.0 1.41e+02    -  1.86e-03 1.98e-03f  1
   4  2.2521879e+00 9.85e+01 1.05e+00  -1.0 1.67e+02    -  1.83e-03 1.99e-03f  1
   5  3.1206896e+00 9.82e+01 1.53e+00  -1.0 1.52e+02    -  2.00e-03 2.68e-03f  1
   6  4.0718260e+00 9.80e+01 1.53e+00  -1.0 1.76e+02    -  3.11e-03 2.74e-03f  1
   7  6.0950236e+00 9.74e+01 2.44e+00  -1.0 2.76e+02    -  3.36e-03 5.55e-03f  1
   8  8.4221167e+00 9.69e+01 2.47e+00  -1.0 1.25e+01   0.0 4.51e-03 5.15e-03f  1
   9  1.2820087e+01 9.60e+01 2.47e+00  -1.0 1.82e+01  -0.5 8.15e-03 9.80e-03f  1
iter    objective    inf_pr   inf_du lg(mu)  ||d||  lg(rg) alpha_du alpha_pr  ls
  10  2.3772354e+01 9.43e+01 2.75e+00  -1.0 1.17e+01  -0.1 1.23e-02 1.77e-02f  1
  11  5.4500200e+01 9.15e+01 4.88e+00  -1.0 1.11e+01   0.4 1.48e-02 2.89e-02f  1
  12  1.3510289e+02 8.57e+01 7.04e+00  -1.0 1.14e+01  -0.1 2.45e-02 6.34e-02f  1
  13  5.6671677e+02 7.19e+01 2.05e+01  -1.0 9.26e+00   0.3 3.56e-02 1.61e-01f  1
  14  6.2613497e+02 6.77e+01 1.67e+01  -1.0 1.17e+01  -0.2 1.63e-01 5.83e-02h  1
  15  2.1892035e+03 3.91e+01 2.69e+01  -1.0 7.07e+00   0.3 1.89e-01 4.22e-01h  1
  16  2.0362195e+03 3.75e+01 3.25e+01  -1.0 1.24e+01  -0.2 6.00e-01 4.23e-02f  1
  17  3.5933809e+03 9.44e+00 6.87e+00  -1.0 4.07e+00   0.2 1.00e+00 7.48e-01h  1
  18  3.1634220e+03 8.99e+00 1.33e+01  -1.0 2.24e+01  -0.3 3.12e-01 4.83e-02f  1
  19  3.0868854e+03 7.53e+00 2.97e+01  -1.0 2.36e+00   0.2 1.00e+00 1.62e-01f  1
iter    objective    inf_pr   inf_du lg(mu)  ||d||  lg(rg) alpha_du alpha_pr  ls
  20  2.7828827e+03 7.21e+00 2.97e+01  -1.0 3.59e+01  -0.3 1.91e-01 4.22e-02f  1
  21  2.6714840e+03 5.54e+00 2.33e+01  -1.0 2.28e+00   0.1 1.00e+00 2.32e-01f  1
  22  2.6923727e+03 2.30e+00 6.67e+00  -1.0 9.16e-01   0.5 1.00e+00 5.86e-01h  1
  23  2.5280420e+03 1.71e+00 1.38e+01  -1.0 2.40e+00   0.1 1.00e+00 2.54e-01f  1
  24  2.4840791e+03 1.09e+00 6.67e+00  -1.0 7.54e-01   0.5 1.00e+00 3.64e-01f  1
  25  2.3747272e+03 8.80e-01 8.55e+00  -1.0 2.62e+00   0.0 1.00e+00 1.92e-01f  1
  26  2.3097186e+03 4.80e-01 3.81e+00  -1.0 7.81e-01   0.4 1.00e+00 4.55e-01f  1
  27  2.2032544e+03 3.88e-01 5.33e+00  -1.0 2.96e+00  -0.0 1.00e+00 1.91e-01f  1
  28  2.1283769e+03 1.95e-01 3.99e+00  -1.0 7.78e-01   0.4 1.00e+00 4.97e-01f  1
  29  2.0256066e+03 1.59e-01 5.45e+00  -1.0 3.20e+00  -0.1 1.00e+00 1.86e-01f  1
iter    objective    inf_pr   inf_du lg(mu)  ||d||  lg(rg) alpha_du alpha_pr  ls
  30  1.9537188e+03 8.44e-02 3.32e+00  -1.0 8.41e-01   0.3 1.00e+00 4.69e-01f  1
  31  1.8525173e+03 7.09e-02 4.78e+00  -1.0 4.06e+00  -0.1 1.00e+00 1.60e-01f  1
  32  1.7695877e+03 3.55e-02 3.66e+00  -1.0 9.66e-01   0.3 1.00e+00 5.00e-01f  1
  33  1.6835814e+03 3.07e-02 6.14e+00  -1.0 4.67e+00  -0.2 1.00e+00 1.35e-01f  1
  34  1.5834443e+03 1.15e-02 2.84e+00  -1.0 9.91e-01   0.2 1.00e+00 6.25e-01f  1
  35  1.4874203e+03 1.00e-02 5.20e+00  -1.0 7.67e+00  -0.2 9.81e-01 1.26e-01f  1
  36  1.4086084e+03 5.41e-03 4.31e+00  -1.0 1.05e+00   0.2 1.00e+00 4.61e-01f  1
  37  1.2835967e+03 4.61e-03 3.70e+00  -1.0 8.53e+00  -0.3 6.25e-01 1.47e-01f  1
  38  1.2290431e+03 3.21e-03 6.05e+00  -1.0 1.27e+00   0.1 1.00e+00 3.04e-01f  1
  39  1.1699256e+03 3.02e-03 5.65e+00  -1.0 2.35e+01  -0.3 3.25e-01 6.04e-02f  1
iter    objective    inf_pr   inf_du lg(mu)  ||d||  lg(rg) alpha_du alpha_pr  ls
  40  1.1168712e+03 2.10e-03 5.57e+00  -1.0 1.33e+00   0.1 1.00e+00 3.03e-01f  1
  41  1.0554828e+03 1.54e-04 1.44e+00  -1.0 4.47e-01   0.5 1.00e+00 9.27e-01f  1
  42  1.0071608e+03 1.13e-04 4.09e+00  -1.0 1.89e+00   0.0 1.00e+00 2.66e-01f  1
  43  9.8393853e+02 6.38e-05 4.16e+00  -1.0 5.81e-01   0.5 1.00e+00 4.37e-01f  1
  44  9.4159165e+02 4.73e-05 4.44e+00  -1.0 2.64e+00  -0.0 1.00e+00 2.59e-01f  1
  45  9.0877559e+02 1.75e-05 1.84e+00  -1.0 7.28e-01   0.4 1.00e+00 6.29e-01f  1
  46  8.7284914e+02 1.36e-05 6.30e+00  -1.0 2.33e+00  -0.1 1.00e+00 2.25e-01f  1
  47  8.3655591e+02 3.37e-06 1.87e+00  -1.0 6.72e-01   0.4 1.00e+00 7.52e-01f  1
  48  8.0885729e+02 2.83e-06 5.14e+00  -1.0 3.35e+00  -0.1 1.00e+00 1.62e-01f  1
  49  7.8766145e+02 1.56e-06 2.75e+00  -1.0 8.16e-01   0.3 1.00e+00 4.47e-01f  1
iter    objective    inf_pr   inf_du lg(mu)  ||d||  lg(rg) alpha_du alpha_pr  ls
  50  7.5251342e+02 1.21e-06 4.76e+00  -1.0 3.52e+00  -0.2 1.00e+00 2.24e-01f  1
  51  7.3388063e+02 6.86e-07 3.88e+00  -1.0 8.76e-01   0.3 1.00e+00 4.35e-01f  1
  52  7.0440745e+02 5.57e-07 5.12e+00  -1.0 6.63e+00  -0.2 1.00e+00 1.88e-01f  1
  53  6.9004871e+02 3.27e-07 4.71e+00  -1.0 7.16e-01   0.2 1.00e+00 4.12e-01f  1
  54  6.5713922e+02 2.44e-07 3.29e+00  -1.0 4.38e+00  -0.3 1.00e+00 2.56e-01f  1
  55  6.4219065e+02 1.43e-07 2.15e+00  -1.0 1.00e+00   0.2 1.00e+00 4.13e-01f  1
  56  6.1547014e+02 1.20e-07 3.74e+00  -1.0 1.19e+01  -0.3 6.69e-01 1.62e-01f  1
  57  6.0199429e+02 6.75e-08 5.08e+00  -1.0 1.16e+00   0.1 1.00e+00 4.37e-01f  1
  58  5.9041654e+02 6.20e-08 4.59e+00  -1.0 1.76e+01  -0.4 4.42e-01 8.06e-02f  1
  59  5.7399169e+02 1.90e-08 2.61e+00  -1.0 8.76e-01   0.1 1.00e+00 6.93e-01f  1
iter    objective    inf_pr   inf_du lg(mu)  ||d||  lg(rg) alpha_du alpha_pr  ls
  60  5.5689522e+02 1.44e-08 3.39e+00  -1.0 4.85e+00  -0.4 1.00e+00 2.46e-01f  1
  61  5.4493852e+02 4.58e-09 2.01e+00  -1.0 1.11e+00  -0.0 1.00e+00 6.82e-01f  1
  62  5.3811400e+02 3.97e-09 4.76e+00  -1.0 6.01e+00  -0.5 6.75e-01 1.33e-01f  1
  63  5.2952243e+02 6.72e-10 1.55e+00  -1.0 7.75e-01  -0.1 1.00e+00 8.31e-01f  1
  64  5.2634666e+02 4.23e-13 7.30e-01  -1.0 3.09e-01   0.4 1.00e+00 1.00e+00f  1
  65  3.3468884e+02 7.13e-14 8.56e-01  -1.7 1.25e+00  -0.1 9.66e-01 4.92e-01f  1
  66  1.9347119e+02 2.82e-13 1.48e+00  -1.7 3.43e-01   0.3 1.00e+00 7.04e-01f  1
  67  1.5862764e+02 3.18e-13 1.21e+00  -1.7 1.72e+00  -0.2 1.00e+00 4.12e-01f  1
  68  1.3989342e+02 3.38e-13 3.02e+00  -1.7 2.82e-01   0.3 1.00e+00 4.61e-01f  1
  69  1.3033198e+02 3.00e-13 3.07e+00  -1.7 1.23e+00  -0.2 1.00e+00 3.09e-01f  1
iter    objective    inf_pr   inf_du lg(mu)  ||d||  lg(rg) alpha_du alpha_pr  ls
  70  1.1286294e+02 3.62e-13 6.64e-01  -1.7 4.00e-01   0.2 1.00e+00 1.00e+00f  1
  71  1.1010249e+02 1.71e-13 7.64e-01  -1.7 1.93e+00  -0.3 7.68e-01 2.46e-01f  1
  72  1.0852499e+02 5.90e-13 7.79e-01  -1.7 5.38e-01   0.2 1.00e+00 4.84e-01f  1
  73  1.0651106e+02 2.30e-13 4.89e+00  -1.7 1.19e+00  -0.3 1.00e+00 3.31e-01f  1
  74  1.0462002e+02 2.38e-13 5.03e-01  -1.7 3.83e-01   0.1 1.00e+00 1.00e+00f  1
  75  1.0355187e+02 1.26e-13 1.25e+00  -1.7 1.38e+00  -0.4 1.00e+00 1.86e-01f  1
  76  1.0309921e+02 2.45e-13 2.96e+00  -1.7 3.15e-01   0.1 1.00e+00 4.73e-01f  1
  77  1.0237946e+02 3.83e-13 1.03e+00  -1.7 6.08e-01  -0.4 1.00e+00 5.73e-01f  1
  78  1.0209081e+02 4.91e-13 2.11e-01  -1.7 2.03e-01   0.0 1.00e+00 1.00e+00f  1
  79  1.0179686e+02 5.31e-13 4.04e-01  -1.7 6.76e-01  -0.5 1.00e+00 3.40e-01f  1
iter    objective    inf_pr   inf_du lg(mu)  ||d||  lg(rg) alpha_du alpha_pr  ls
  80  1.0162151e+02 3.75e-13 1.80e-01  -1.7 1.95e-01  -0.0 1.00e+00 1.00e+00f  1
  81  5.4218687e+01 1.92e-13 3.42e-01  -2.5 1.54e+00  -0.5 5.40e-01 5.48e-01f  1
  82  1.7840534e+01 5.80e-13 2.72e-01  -2.5 3.41e-01  -0.1 9.72e-01 9.38e-01f  1
  83  1.6821145e+01 4.12e-13 2.29e-01  -2.5 5.13e-01  -0.6 4.37e-01 3.66e-01f  1
  84  1.5696628e+01 3.58e-13 6.38e-01  -2.5 1.75e-01  -0.1 1.00e+00 6.61e-01f  1
  85  1.5455266e+01 4.11e-13 4.28e-01  -2.5 4.30e-01  -0.6 5.55e-01 3.32e-01f  1
  86  1.5031727e+01 1.31e-13 9.07e-02  -2.5 1.40e-01  -0.2 1.00e+00 1.00e+00f  1
  87  1.4848304e+01 4.57e-13 1.26e-01  -2.5 7.31e-01  -0.7 5.79e-01 5.31e-01f  1
  88  1.4833590e+01 3.12e-13 9.92e-02  -2.5 1.72e-01  -0.2 1.00e+00 1.00e+00f  1
  89  1.4643117e+01 4.19e-13 4.14e-01  -2.5 8.92e-01  -0.7 7.50e-01 5.17e-01f  1
iter    objective    inf_pr   inf_du lg(mu)  ||d||  lg(rg) alpha_du alpha_pr  ls
  90  1.4576318e+01 7.80e-13 2.61e+00  -2.5 1.80e+00  -1.2 4.42e-01 9.19e-02f  1
  91  1.4454781e+01 4.67e-13 3.57e+00  -2.5 8.54e+01    -  1.00e+00 7.46e-02f  1
  92  1.4259306e+01 1.94e-13 2.37e+00  -2.5 4.67e+01    -  1.00e+00 2.91e-01f  1
  93  1.4161042e+01 2.95e-13 4.73e-01  -2.5 7.50e+00    -  1.00e+00 8.06e-01f  1
  94  1.4142176e+01 4.53e-13 2.83e-08  -2.5 1.11e+00    -  1.00e+00 1.00e+00f  1
  95  7.5198741e-01 3.20e-13 1.50e-09  -3.8 2.15e+00    -  1.00e+00 1.00e+00f  1
  96  8.9686938e-03 2.85e-13 1.85e-11  -5.7 1.14e-01    -  1.00e+00 1.00e+00f  1
  97 -2.4663443e-04 3.12e-13 2.66e-14  -8.6 1.45e-03    -  1.00e+00 1.00e+00f  1

Number of Iterations....: 97

                                   (scaled)                 (unscaled)
Objective...............:  -2.4663442573894559e-04   -2.4663442573894559e-04
Dual infeasibility......:   2.6645352591003757e-14    2.6645352591003757e-14
Constraint violation....:   3.1219471452459402e-13    3.1219471452459402e-13
Complementarity.........:   2.5399278594994196e-09    2.5399278594994196e-09
Overall NLP error.......:   2.5399278594994196e-09    2.5399278594994196e-09


Number of objective function evaluations             = 98
Number of objective gradient evaluations             = 98
Number of equality constraint evaluations            = 98
Number of inequality constraint evaluations          = 0
Number of equality constraint Jacobian evaluations   = 98
Number of inequality constraint Jacobian evaluations = 0
Number of Lagrangian Hessian evaluations             = 97
Total CPU secs in IPOPT (w/o function evaluations)   =     21.940
Total CPU secs in NLP function evaluations           =      5.842

EXIT: Optimal Solution Found.

************************ CUTEst statistics ************************


 Package used            :  IPOPT
 Problem                 :  A0NNDNIL  
 # variables             =           60012
 # constraints           =           20004
 # objective functions   =        0.1970000E+03
 # objective gradients   =        0.9900000E+02
 # objective Hessians    =        0.9800000E+02
 # Hessian-vector prdct  =        0.0000000E+00
 # constraints functions =        0.1980000E+03
 # constraints gradients =        0.1000000E+03
 # constraints Hessians  =        0.9800000E+02
 Exit code               =               0
 Final f                 =       -2.4663442573894559D-04
 Bounds feasibility      =        9.7503730622735656D-09
 Set up time             =            0.78 seconds
 Solve time              =           58.31 seconds


******************************************************************

